Version identifier: 22.1.0.0 | 2022-03-09 | 1a383f8ce
CPXPARAM_Read_DataCheck                          1
Tried aggregator 2 times.
MIP Presolve eliminated 427574 rows and 502 columns.
MIP Presolve modified 165600 coefficients.
Aggregator did 200 substitutions.
Reduced MIP has 790499 rows, 60100 columns, and 3288497 nonzeros.
Reduced MIP has 60100 binaries, 0 generals, 0 SOSs, and 0 indicators.
Presolve time = 13.85 sec. (5506.11 ticks)
Probing fixed 2 vars, tightened 0 bounds.
Probing time = 7.93 sec. (2744.86 ticks)
Tried aggregator 1 time.
Detecting symmetries...
MIP Presolve eliminated 101 rows and 101 columns.
Reduced MIP has 790398 rows, 59999 columns, and 3282447 nonzeros.
Reduced MIP has 59999 binaries, 0 generals, 0 SOSs, and 0 indicators.
Presolve time = 7.29 sec. (3470.35 ticks)
Probing time = 0.86 sec. (241.44 ticks)
Clique table members: 1209038.
MIP emphasis: balance optimality and feasibility.
MIP search method: dynamic search.
Parallel mode: deterministic, using up to 4 threads.
Root relaxation solution time = 22.28 sec. (10448.04 ticks)

        Nodes                                         Cuts/
   Node  Left     Objective  IInf  Best Integer    Best Bound    ItCnt     Gap

      0     0        3.0000   462                      3.0000    54949         
      0     0        3.0000   529                  Cuts: 4869    59452         
      0     0        3.0000   153                  Cliques: 7    59542         
      0     0        3.0000   175                   Cuts: 507    59787         
Detecting symmetries...
      0     2        3.0000   105                      3.0000    59787         
Elapsed time = 226.04 sec. (84681.31 ticks, tree = 0.02 MB, solutions = 0)
      1     3        3.0000   155                      3.0000    60199         
      2     4        3.0000   136                      3.0000    60456         
      4     3        3.0000   104                      3.0000    59847         
      5     5        3.0000   199                      3.0000    61403         
      6     5        3.0000   131                      3.0000    60485         
      8     6        3.0000   106                      3.0000    65084         
      9     5    infeasible                            3.0000    64979         
     10     7    infeasible                            3.0000    69277         
     12     8    infeasible                            3.0000    73217         
     14     8        3.0000   153                      3.0000    72969         
Elapsed time = 246.81 sec. (92833.93 ticks, tree = 0.12 MB, solutions = 0)
     16    11        3.0000    93                      3.0000    84349         
     18    10        3.0100  1760                      3.0000    73415         
     21    12        3.0000    81                      3.0000    97303         
     28    16        5.0000   822                      3.0000   101406         
     43    20        5.0000   694                      3.0000   106147         
     49    22        5.0000   696                      3.0000   113801         
     55    23        3.0000   103                      3.0000   114069         
     62    25        3.0000    93                      3.0000   114186         
     68    30    infeasible                            3.0000   114522         
     79    30    infeasible                            3.0000   114617         
Elapsed time = 296.23 sec. (103708.88 ticks, tree = 38.07 MB, solutions = 0)
     83    30        3.0000   173                      3.0000   114840         
     87    24    infeasible                            3.0000   115808         
     97    26    infeasible                            3.0000   115787         
     99    35        3.0000   155                      3.0000   115868         
    107    21        3.0000   207                      3.0000   116560         
    109    23        3.0000   193                      3.0000   116681         
    113    30        5.0000   912                      3.0000   123962         
    120    36        5.0000   864                      3.0000   124120         
    136    52        5.0000   792                      3.0000   129198         
    143    57        5.0000   768                      3.0000   129257         
Elapsed time = 361.34 sec. (115017.93 ticks, tree = 100.79 MB, solutions = 0)
    152    63        5.0000   739                      3.0000   129436         
    161    70        5.0000   681                      3.0000   129979         
    165    74        5.0000   678                      3.0000   130017         
    172    82        5.0000   735                      3.0000   134250         
    181    83        3.0000   108                      3.0000   137458         
    184    84        3.0000   104                      3.0000   137500         
    186    85        3.0109  1628                      3.0000   140312         
    188    87        3.0000   104                      3.0000   140605         
    189    87        3.0140  1635                      3.0000   138373         
    190    92        5.0000   689                      3.0000   146215         
Elapsed time = 449.42 sec. (127959.56 ticks, tree = 85.20 MB, solutions = 0)
    195    96        5.0000   653                      3.0000   146441         
    203   105        5.0000   630                      3.0000   149571         
    213    93        3.0725  2037                      3.0000   154106         
    214   115        5.0000   579                      3.0000   149638         
    224   124        5.0000   526                      3.0000   155787         
    225   117        5.0000   675                      3.0000   158763         
    235   130        5.0000   506                      3.0000   155802         
    246   135        5.0000   443                      3.0000   156067         
    247   128        5.0000   585                      3.0000   158999         
    262   142        5.0000   414                      3.0000   159290         
Elapsed time = 540.45 sec. (145542.47 ticks, tree = 204.97 MB, solutions = 0)
    279   166        5.0000   505                      3.0000   159512         
    286   168        5.0000   343                      3.0000   159618         
    296   178        5.0000   296                      3.0000   159672         
    305   187        5.0000   225                      3.0000   159755         
    306   188        5.0000   222                      3.0000   159756         
    314   196        5.0000   183                      3.0000   159786         
    321   201        5.0000   122                      3.0000   159809         
    336   208        5.0000    56                      3.0000   159836         
    345   225        5.0000   320                      3.0000   160237         
    351   231        5.0000   299                      3.0000   160265         
Elapsed time = 598.22 sec. (157051.75 ticks, tree = 697.10 MB, solutions = 0)
    358   238        5.0000   270                      3.0000   160295         
    370   268        5.0000   136                      3.0000   162291         
    372   270        5.0000   136                      3.0000   162301         
    378   276        5.0000    62                      3.0000   162385         
    380   234        5.0000    64                      3.0000   163418         
    381   234        5.0652  1949                      3.0000   165608         
    383   266        5.0109  1700                      3.0000   166974         
    384   266        5.0652  2001                      3.0000   168303         
    385   267        7.0000   665                      3.0000   169745         
    393   275        7.0000   572                      3.0000   169963         
Elapsed time = 719.61 sec. (182787.42 ticks, tree = 931.06 MB, solutions = 0)
    401   283        7.0000   355                      3.0000   170169         
    406   288        7.0000   337                      3.0000   170183         
    413   295        7.0000   311                      3.0000   170207         
    421   303        7.0000   279                      3.0000   170243         
    425   307        7.0000   263                      3.0000   170254         
    433   315        7.0000   232                      3.0000   170265         
    440   322        7.0000   161                      3.0000   170322         
    445   327        7.0000   138                      3.0000   170352         
    449   330        7.0652  2027                      3.0000   171708         
    451   331        7.0435  2012                      3.0000   172995         
Elapsed time = 790.87 sec. (197357.00 ticks, tree = 1275.07 MB, solutions = 0)
    453   332        7.0435  2023                      3.0000   174156         
    455   333        7.0435  2000                      3.0000   175289         
    459   334        7.0761  2008                      3.0000   176572         
    463   351        5.0000    62                      3.0000   185297         
    464   336        7.0652  2007                      3.0000   177787         
    466   352        7.0109  1631                      3.0000   187441         
    467   351        5.0109  1640                      3.0000   191031         
    468    16        3.0435  3110                      3.0000   136920         
    469   353        7.0652  2141                      3.0000   203009         
    470   357        9.0000   722                      3.0000   237475         
Elapsed time = 1089.65 sec. (245345.41 ticks, tree = 1275.30 MB, solutions = 0)
    480   367        9.0000   685                      3.0000   237597         
    490   377        9.0000   654                      3.0000   237616         
    500   387        9.0000   624                      3.0000   237634         
    510   397        9.0000   593                      3.0000   237665         
    520   407        9.0000   562                      3.0000   237686         
    529   416        9.0000   482                      3.0000   237918         
    534   421        9.0000   422                      3.0000   238110         
    540   427        9.0000   349                      3.0000   238248         
    550   437        9.0000   315                      3.0000   238289         
    576   463        9.0109  1708                      3.0000   239982         
Elapsed time = 1224.11 sec. (265834.08 ticks, tree = 1286.96 MB, solutions = 0)
    578   464        9.0173  1720                      3.0000   241852         
    580   465       11.0000   800                      3.0000   243917         
    610   495       11.0000   709                      3.0000   243994         
    620   505       11.0000   679                      3.0000   244013         
    650   535       11.0000   510                      3.0000   244377         
    670   555       11.0000   334                      3.0000   244752         
*   692   567      integral     0       11.0000        3.0000   244883   72.73%
    694   461        3.0652  2017       11.0000        3.0000   250928   72.73%
    701   465        5.0000   666       11.0000        3.0000   273808   72.73%
    708   470        5.0000   650       11.0000        3.0000   273822   72.73%
    725   476        7.0000   646       11.0000        3.0000   279142   72.73%
Elapsed time = 1573.00 sec. (334323.80 ticks, tree = 1288.54 MB, solutions = 1)
    749   514        7.0000   606       11.0000        3.0000   279306   72.73%
    761   509        5.0000   528       11.0000        3.0000   279285   72.73%
    782   518        5.0000   501       11.0000        3.0000   279308   72.73%
    806   548        5.0000   428       11.0000        3.0000   279537   72.73%
    831   582        7.0000   407       11.0000        3.0000   279772   72.73%
    850   588        7.0000   388       11.0000        3.0000   279785   72.73%
    893   645        7.0000   260       11.0000        3.0000   280509   72.73%
    930   633        7.0000   602       11.0000        3.0000   282450   72.73%
    963   647        7.0000   521       11.0000        3.0000   282659   72.73%
   1010   749        9.0000   563       11.0000        3.0000   285565   72.73%
Elapsed time = 1820.78 sec. (373340.92 ticks, tree = 1340.36 MB, solutions = 1)
   1057   777        9.0000   403       11.0000        3.0000   285824   72.73%
   1088   853        9.0000   316       11.0000        3.0000   287012   72.73%
   1128   882        9.0000   178       11.0000        3.0000   287203   72.73%
   1156   885    infeasible             11.0000        3.0000   287778   72.73%
   1202   895        9.0000   189       11.0000        3.0000   290227   72.73%
   1224   911        3.0000   177       11.0000        3.0000   290556   72.73%
   1246   931        5.0870  1599       11.0000        3.0000   294209   72.73%
   1263   932        7.0000   695       11.0000        3.0000   297140   72.73%
   1285   943        9.0000   779       11.0000        3.0000   304401   72.73%
   1303   933        5.0217  1620       11.0000        3.0000   302211   72.73%
Elapsed time = 2025.61 sec. (415025.38 ticks, tree = 1333.44 MB, solutions = 1)
   1333   960    infeasible             11.0000        3.0000   306622   72.73%
   1367   963        9.0000   779       11.0000        3.0000   311970   72.73%
   1404   995        3.0000   128       11.0000        3.0000   312863   72.73%
   1406   993        7.0000   792       11.0000        3.0000   321030   72.73%
   1421  1006        7.0000   622       11.0000        3.0000   322925   72.73%
   1437  1021        7.0000   201       11.0000        3.0000   324061   72.73%
   1446  1028        7.0329  1226       11.0000        3.0000   326505   72.73%
   1451  1031        7.0000   162       11.0000        3.0000   328324   72.73%
   1455  1034        7.0000   170       11.0000        3.0000   330711   72.73%
   1471  1079        3.0000   112       11.0000        3.0000   328569   72.73%
Elapsed time = 2225.32 sec. (457413.66 ticks, tree = 1343.13 MB, solutions = 1)
   1506  1099        9.0000   611       11.0000        3.0000   335325   72.73%
   1551  1105        5.0000   678       11.0000        3.0000   338353   72.73%
   1603  1133        5.0000   507       11.0000        3.0000   338905   72.73%
   1644  1167        5.0000   368       11.0000        3.0000   339117   72.73%
   1675  1270        5.0000   718       11.0000        3.0000   347389   72.73%
   1707  1301        5.0000   589       11.0000        3.0000   347563   72.73%
*  1727+ 1243                            7.0000        3.0000            57.14%
   1728  1321        5.0000   526        7.0000        3.0000   347610   57.14%
   1735   526        3.0435   609        7.0000        3.0000   355336   57.14%
   1743   356        5.0000   785        7.0000        3.0000   239063   57.14%
   1744    48        3.0380  1611        7.0000        3.0000   186969   57.14%
Elapsed time = 3115.41 sec. (926103.60 ticks, tree = 81.49 MB, solutions = 2)

Performing restart 1

Repeating presolve.
Tried aggregator 2 times.
MIP Presolve eliminated 778776 rows and 58798 columns.
MIP Presolve modified 1856 coefficients.
Aggregator did 100 substitutions.
Reduced MIP has 11522 rows, 1101 columns, and 60499 nonzeros.
Reduced MIP has 1101 binaries, 0 generals, 0 SOSs, and 0 indicators.
Presolve time = 0.63 sec. (657.66 ticks)
Tried aggregator 1 time.
MIP Presolve eliminated 200 rows and 104 columns.
Reduced MIP has 11322 rows, 997 columns, and 59899 nonzeros.
Reduced MIP has 997 binaries, 0 generals, 0 SOSs, and 0 indicators.
Presolve time = 0.12 sec. (94.22 ticks)
Tried aggregator 1 time.
MIP Presolve eliminated 2047 rows and 208 columns.
Reduced MIP has 9275 rows, 789 columns, and 51012 nonzeros.
Reduced MIP has 789 binaries, 0 generals, 0 SOSs, and 0 indicators.
Presolve time = 0.11 sec. (90.55 ticks)
Tried aggregator 1 time.
MIP Presolve eliminated 3358 rows and 88 columns.
Reduced MIP has 5917 rows, 701 columns, and 31702 nonzeros.
Reduced MIP has 701 binaries, 0 generals, 0 SOSs, and 0 indicators.
Presolve time = 0.07 sec. (49.19 ticks)
Tried aggregator 1 time.
Reduced MIP has 5917 rows, 701 columns, and 31702 nonzeros.
Reduced MIP has 701 binaries, 0 generals, 0 SOSs, and 0 indicators.
Presolve time = 0.04 sec. (38.41 ticks)
Represolve time = 1.34 sec. (1139.70 ticks)
   1745     0        3.0000   204        7.0000   Cliques: 51   436843   57.14%
   1745     0        3.0000   230        7.0000     Cuts: 157   437032   57.14%
   1745     0        3.0000   146        7.0000   Cliques: 15   437081   57.14%
   1745     0        3.0000   258        7.0000     Cuts: 400   437434   57.14%
   1745     0        3.0000   171        7.0000      Cuts: 24   437552   57.14%
   1745     0        3.0000   259        7.0000     Cuts: 232   437846   57.14%
   1745     0        3.0000   187        7.0000      Cuts: 47   438015   57.14%
   1745     0        3.0000   247        7.0000     Cuts: 268   438220   57.14%
   1745     2        3.0000   149        7.0000        3.0000   438220   57.14%
*  2262+  166                            5.0000        3.0000            40.00%
   2359   101    infeasible              5.0000        3.0000   469592   40.00%

Clique cuts applied:  472
Cover cuts applied:  4
Zero-half cuts applied:  2

Root node processing (before b&c):
  Real time             =  224.54 sec. (83601.01 ticks)
Parallel b&c, 4 threads:
  Real time             = 2903.83 sec. (853904.20 ticks)
  Sync time (average)   =  639.51 sec.
  Wait time (average)   =    0.00 sec.
                          ------------
Total (root+branch&cut) = 3128.37 sec. (937505.21 ticks)
y[0] = 1.0
y[1] = 1.0
y[2] = 1.0
y[3] = 1.0
y[4] = 1.0
y[5] = 1.0
